Nb of jobs, Nb of Machines, Time seed, Machine seed, Upper bound, Lower bound
3,6,-1,-1,-1,-1
Times
19,33,71,14,97,79
28,55,16,50,16,58
97,7,51,30,73,74
Machines
6,4,1,5,3,2
3,2,6,4,1,5
4,1,6,3,5,2
